p cnf 100 323
c weights 1.0 1.0 0.2 0.8 1.0 1.0 0.3 1.0 0.7 1.0 0.0 1.0 1.0 1.0 1.0 1.0 0.2 0.8 1.0 1.0 0.3 1.0 0.7 1.0 0.0 1.0 1.0 1.0 1.0 1.0 0.2 0.8 1.0 1.0 0.3 1.0 0.7 1.0 0.0 1.0 1.0 1.0 1.0 1.0 0.1 0.9 1.0 1.0 0.4 1.0 0.6 1.0 0.0 1.0 1.0 1.0 0.0 1.0 1.0 1.0 0.0 1.0 1.0 1.0 1.0 1.0 0.1 0.9 1.0 1.0 0.4 1.0 0.6 1.0 0.0 1.0 1.0 1.0 0.0 1.0 1.0 1.0 0.0 1.0 1.0 1.0 1.0 1.0 1.0 1.0 0.0 1.0 1.0 1.0 0.0 1.0 1.0 1.0 0.0 1.0 0.0 1.0 1.0 1.0 1.0 1.0 1.0 1.0 0.0 1.0 1.0 1.0 0.0 1.0 1.0 1.0 0.0 1.0 0.0 1.0 1.0 1.0 1.0 1.0 0.1 0.9 1.0 1.0 0.4 1.0 0.6 1.0 0.0 1.0 1.0 1.0 0.0 1.0 1.0 1.0 0.0 1.0 1.0 1.0 1.0 1.0 0.1 0.9 1.0 1.0 0.4 1.0 0.6 1.0 0.0 1.0 1.0 1.0 0.0 1.0 1.0 1.0 0.0 1.0 1.0 1.0 1.0 1.0 1.0 1.0 1.0 1.0 1.0 1.0 1.0 1.0 1.0 1.0 1.0 1.0 1.0 1.0 0.0 1.0 0.0 1.0 0.0 1.0 0.0 1.0 0.0 1.0 0.0 1.0 0.0 1.0 0.0 1.0 1.0 1.0

c-------------------- *** AUX 1-3 *** ---------------------

c---------- stress(a)
1 -2 0
-1 2 0

c---------- aux1 | stress(a)
4 -3 -1 0
-4 3 0
-4 1 0

c---------- -aux1 | stress(a)
5 3 -1 0
-5 -3 0
-5 1 0

c---------- aux1 | -stress(a)
6 -3 1 0
-6 3 0
-6 -1 0

c---------- -aux1 | -stress(a)
7 3 1 0
-7 -3 0
-7 -1 0

c---------- stress(b)
8 -9 0
-8 9 0

c---------- aux2 | stress(b)
11 -10 -8 0
-11 10 0
-11 8 0

c---------- -aux2 | stress(b)
12 10 -8 0
-12 -10 0
-12 8 0

c---------- aux2 | -stress(b)
13 -10 8 0
-13 10 0
-13 -8 0

c---------- -aux2 | -stress(b)
14 10 8 0
-14 -10 0
-14 -8 0

c---------- stress(c)
15 -16 0
-15 16 0

c---------- aux3 | stress(c)
18 -17 -15 0
-18 17 0
-18 15 0

c---------- -aux3 | stress(c)
19 17 -15 0
-19 -17 0
-19 15 0

c---------- aux3 | -stress(c)
20 -17 15 0
-20 17 0
-20 -15 0

c---------- -aux3 | -stress(c)
21 17 15 0
-21 -17 0
-21 -15 0

c-------------------- *** AUX 4-5 *** ---------------------

c---------- friends(b,c)
22 -23 0
-22 23 0

c---------- aux4 | friends(b,c) & aux3
25 -24 -22 -17 0
-25 24 0
-25 22 0
-25 17 0

c---------- -aux4 | friends(b,c) & aux3
26 24 -22 -17 0
-26 -24 0
-26 22 0
-26 17 0

c---------- aux4 | friends(b,c) & -aux3
27 -24 -22 17 0
-27 24 0
-27 22 0
-27 -17 0

c---------- -aux4 | friends(b,c) & -aux3
28 24 -22 17 0
-28 -24 0
-28 22 0
-28 -17 0

c---------- aux4 | -friends(b,c) & aux3
29 -24 22 -17 0
-29 24 0
-29 -22 0
-29 17 0

c---------- -aux4 | -friends(b,c) & aux3
30 24 22 -17 0
-30 -24 0
-30 -22 0
-30 17 0

c---------- aux4 | -friends(b,c) & -aux3
31 -24 22 17 0
-31 24 0
-31 -22 0
-31 -17 0

c---------- -aux4 | -friends(b,c) & -aux3
32 24 22 17 0
-32 -24 0
-32 -22 0
-32 -17 0

c---------- friends(c,b)
33 -34 0
-33 34 0

c---------- aux5 | friends(c,b) & aux2
36 -35 -33 -10 0
-36 35 0
-36 33 0
-36 10 0

c---------- -aux5 | friends(c,b) & aux2
37 35 -33 -10 0
-37 -35 0
-37 33 0
-37 10 0

c---------- aux5 | friends(c,b) & -aux2
38 -35 -33 10 0
-38 35 0
-38 33 0
-38 -10 0

c---------- -aux5 | friends(c,b) & -aux2
39 35 -33 10 0
-39 -35 0
-39 33 0
-39 -10 0

c---------- aux5 | -friends(c,b) & aux2
40 -35 33 -10 0
-40 35 0
-40 -33 0
-40 10 0

c---------- -aux5 | -friends(c,b) & aux2
41 35 33 -10 0
-41 -35 0
-41 -33 0
-41 10 0

c---------- aux5 | -friends(c,b) & -aux2
42 -35 33 10 0
-42 35 0
-42 -33 0
-42 -10 0

c---------- -aux5 | -friends(c,b) & -aux2
43 35 33 10 0
-43 -35 0
-43 -33 0
-43 -10 0

c-------------------- *** smokes(b) *** ---------------------

c---------- smokes(b) | aux4 & aux2
45 -44 -24 -10 0
-45 44 0
-45 24 0
-45 10 0

c---------- -smokes(b) | aux4 & aux2
46 44 -24 -10 0
-46 -44 0
-46 24 0
-46 10 0

c---------- smokes(b) | aux4 & -aux2
47 -44 -24 10 0
-47 44 0
-47 24 0
-47 -10 0

c---------- -smokes(b) | aux4 & -aux2
48 44 -24 10 0
-48 -44 0
-48 24 0
-48 -10 0

c---------- smokes(b) | -aux4 & aux2
49 -44 24 -10 0
-49 44 0
-49 -24 0
-49 10 0

c---------- -smokes(b) | -aux4 & aux2
50 44 24 -10 0
-50 -44 0
-50 -24 0
-50 10 0

c---------- smokes(b) | -aux4 & -aux2
51 -44 24 10 0
-51 44 0
-51 -24 0
-51 -10 0

c---------- -smokes(b) | -aux4 & -aux2
52 44 24 10 0
-52 -44 0
-52 -24 0
-52 -10 0

c-------------------- *** smokes(b) *** ---------------------

c---------- smokes(c) | aux5 & aux3
54 -53 -35 -17 0
-54 53 0
-54 35 0
-54 17 0

c---------- -smokes(c) | aux5 & aux3
55 53 -35 -17 0
-55 -53 0
-55 35 0
-55 17 0

c---------- smokes(c) | aux5 & -aux3
56 -53 -35 17 0
-56 53 0
-56 35 0
-56 -17 0

c---------- -smokes(c) | aux5 & -aux3
57 53 -35 17 0
-57 -53 0
-57 35 0
-57 -17 0

c---------- smokes(c) | -aux5 & aux3
58 -53 35 -17 0
-58 53 0
-58 -35 0
-58 17 0

c---------- -smokes(c) | -aux5 & aux3
59 53 35 -17 0
-59 -53 0
-59 -35 0
-59 17 0

c---------- smokes(c) | -aux5 & -aux3
60 -53 35 17 0
-60 53 0
-60 -35 0
-60 -17 0

c---------- -smokes(c) | -aux5 & -aux3
61 53 35 17 0
-61 -53 0
-61 -35 0
-61 -17 0

c-------------------- *** AUX 6-7 *** ---------------------

c---------- friends(a,b)
62 -63 0
-62 63 0

c---------- aux6 | friends(a,b) & smokes(b)
65 -64 -62 -44 0
-65 64 0
-65 62 0
-65 44 0

c---------- -aux6 | friends(a,b) & smokes(b)
66 64 -62 -44 0
-66 -64 0
-66 62 0
-66 44 0

c---------- aux6 | friends(a,b) & -smokes(b)
67 -64 -62 44 0
-67 64 0
-67 62 0
-67 -44 0

c---------- -aux6 | friends(a,b) & -smokes(b)
68 64 -62 44 0
-68 -64 0
-68 62 0
-68 -44 0

c---------- aux6 | -friends(a,b) & smokes(b)
69 -64 62 -44 0
-69 64 0
-69 -62 0
-69 44 0

c---------- -aux6 | -friends(a,b) & smokes(b)
70 64 62 -44 0
-70 -64 0
-70 -62 0
-70 44 0

c---------- aux6 | -friends(a,b) & -smokes(b)
71 -64 62 44 0
-71 64 0
-71 -62 0
-71 -44 0

c---------- -aux6 | -friends(a,b) & -smokes(b)
72 64 62 44 0
-72 -64 0
-72 -62 0
-72 -44 0

c---------- friends(a,c)
73 -74 0
-73 74 0

c---------- aux7 | friends(a,c) & smokes(c)
76 -75 -73 -53 0
-76 75 0
-76 73 0
-76 53 0

c---------- -aux7 | friends(a,c) & smokes(c)
77 75 -73 -53 0
-77 -75 0
-77 73 0
-77 53 0

c---------- aux7 | friends(a,c) & -smokes(c)
78 -75 -73 53 0
-78 75 0
-78 73 0
-78 -53 0

c---------- -aux7 | friends(a,c) & -smokes(c)
79 75 -73 53 0
-79 -75 0
-79 73 0
-79 -53 0

c---------- aux7 | -friends(a,c) & smokes(c)
80 -75 73 -53 0
-80 75 0
-80 -73 0
-80 53 0

c---------- -aux7 | -friends(a,c) & smokes(c)
81 75 73 -53 0
-81 -75 0
-81 -73 0
-81 53 0

c---------- aux7 | -friends(a,c) & -smokes(c)
82 -75 73 53 0
-82 75 0
-82 -73 0
-82 -53 0

c---------- -aux7 | -friends(a,c) & -smokes(c)
83 75 73 53 0
-83 -75 0
-83 -73 0
-83 -53 0

c-------------------- *** smokes(a) *** ---------------------

c---------- smokes(a)| aux1 & aux6 & aux7
85 -84 -75 -64 -3 0
-85 3 0
-85 64 0
-85 75 0
-85 84 0

c---------- smokes(a)| -aux1 & aux6 & aux7
86 -84 -75 -64 3 0
-86 -3 0
-86 64 0
-86 75 0
-86 84 0

c---------- smokes(a)| aux1 & -aux6 & aux7
87 -84 -75 64 -3 0
-87 3 0
-87 -64 0
-87 75 0
-87 84 0

c---------- smokes(a)| -aux1 & -aux6 & aux7
88 -84 -75 64 3 0
-88 -3 0
-88 -64 0
-88 75 0
-88 84 0

c---------- smokes(a)| aux1 & aux6 & -aux7
89 -84 75 -64 -3 0
-89 3 0
-89 64 0
-89 -75 0
-89 84 0

c---------- smokes(a)| -aux1 & aux6 & -aux7
90 -84 75 -64 3 0
-90 -3 0
-90 64 0
-90 -75 0
-90 84 0

c---------- smokes(a)| aux1 & -aux6 & -aux7
91 -84 75 64 -3 0
-91 3 0
-91 -64 0
-91 -75 0
-91 84 0

c---------- smokes(a)| -aux1 & -aux6 & -aux7
92 -84 75 64 3 0
-92 -3 0
-92 -64 0
-92 -75 0
-92 84 0

c---------- -smokes(a)| aux1 & aux6 & aux7
93 84 -75 -64 -3 0
-93 3 0
-93 64 0
-93 75 0
-93 -84 0

c---------- -smokes(a)| -aux1 & aux6 & aux7
94 84 -75 -64 3 0
-94 -3 0
-94 64 0
-94 75 0
-94 -84 0

c---------- -smokes(a)| aux1 & -aux6 & aux7
95 84 -75 64 -3 0
-95 3 0
-95 -64 0
-95 75 0
-95 -84 0

c---------- -smokes(a)| -aux1 & -aux6 & aux7
96 84 -75 64 3 0
-96 -3 0
-96 -64 0
-96 75 0
-96 -84 0

c---------- -smokes(a)| aux1 & aux6 & -aux7
97 84 75 -64 -3 0
-97 3 0
-97 64 0
-97 -75 0
-97 -84 0

c---------- -smokes(a)| -aux1 & aux6 & -aux7
98 84 75 -64 3 0
-98 -3 0
-98 64 0
-98 -75 0
-98 -84 0

c---------- -smokes(a)| aux1 & -aux6 & -aux7
99 84 75 64 -3 0
-99 3 0
-99 -64 0
-99 -75 0
-99 -84 0

c---------- -smokes(a)| -aux1 & -aux6 & -aux7
100 84 75 64 3 0
-100 -3 0
-100 -64 0
-100 -75 0
-100 -84 0

84 0






























